(set-option :produce-models true)
(set-logic QF_UF)
(declare-fun p14() Bool)
(declare-fun p34() Bool)
(declare-fun p33() Bool)
(declare-fun p29() Bool)
(declare-fun p23() Bool)
(declare-fun p11() Bool)
(declare-fun p39() Bool)
(declare-fun p20() Bool)
(declare-fun p28() Bool)
(declare-fun p22() Bool)
(declare-fun p13() Bool)
(declare-fun p18() Bool)
(declare-fun p27() Bool)
(declare-fun p7() Bool)
(declare-fun p16() Bool)
(declare-fun p6() Bool)
(declare-fun p26() Bool)
(declare-fun p9() Bool)
(declare-fun p21() Bool)
(declare-fun p0() Bool)
(declare-fun p8() Bool)
(declare-fun p24() Bool)
(declare-fun p25() Bool)
(declare-fun p17() Bool)
(declare-fun p37() Bool)
(declare-fun p1() Bool)
(declare-fun p5() Bool)
(declare-fun p32() Bool)
(declare-fun p10() Bool)
(declare-fun p12() Bool)
(declare-fun p2() Bool)
(declare-fun p30() Bool)
(declare-fun p38() Bool)
(declare-fun p31() Bool)
(declare-fun p35() Bool)
(declare-fun p15() Bool)
(declare-fun p36() Bool)
(declare-fun p3() Bool)
(declare-fun p4() Bool)
(declare-fun p19() Bool)
(assert
(and (or (not p14) (not p34) p33) (or (not p29) p23 (not p14)) (or (not p11) p39 (not p20)) (or p28 p22 (not p13)) (or (not p18) (not p27) p28) (or (not p7) (not p16) (not p18)) (or (not p33) p6 (not p26)) (or p9 (not p21) (not p0)) (or (not p9) p8 (not p22)) (or (not p0) (not p24) p28) (or (not p25) (not p27) p17) (or p23 (not p39) (not p7)) (or (not p27) p24 p6) (or (not p37) (not p1) (not p39)) (or p7 (not p9) p5) (or (not p16) p33 p16) (or p16 (not p20) (not p29)) (or p5 (not p32) p26) (or p32 (not p10) (not p20)) (or p12 p18 p29) (or (not p2) p20 p32) (or (not p30) (not p16) p25) (or p38 p39 (not p5)) (or p17 (not p31) p11) (or p5 (not p2) p27) (or p32 p11 p17) (or p39 p24 p6) (or p29 p16 (not p16)) (or (not p37) (not p34) (not p14)) (or p22 (not p12) (not p34)) (or (not p23) (not p26) (not p8)) (or (not p20) (not p16) (not p26)) (or (not p12) p35 p15) (or p13 p8 p15) (or p7 p16 p26) (or p22 (not p34) (not p35)) (or (not p6) p14 (not p35)) (or p36 (not p18) p0) (or (not p9) (not p8) (not p0)) (or (not p24) p6 p9) (or p3 p1 p34) (or p35 p14 (not p8)) (or (not p11) p27 (not p30)) (or (not p27) p2 p10) (or (not p8) p0 (not p6)) (or p32 (not p6) p18) (or (not p20) p23 p38) (or (not p18) p4 p37) (or p11 (not p39) p15) (or p11 (not p17) (not p13)) (or (not p30) p13 (not p26)) (or (not p36) (not p5) p28) (or p1 (not p15) p23) (or p26 p2 (not p8)) (or p17 p10 p31) (or (not p18) (not p17) (not p21)) (or (not p30) p11 (not p28)) (or p16 p20 p7) (or p1 p28 (not p15)) (or p19 (not p26) (not p16)) (or (not p31) (not p6) (not p31)) (or p1 (not p27) (not p37)) (or (not p20) p27 p2) (or p35 p20 p3) (or p15 (not p28) p32) (or p0 p39 p11) (or (not p26) (not p0) p10) (or p11 (not p11) p18) (or p4 p11 p12) (or (not p0) (not p18) (not p38)) (or p34 p7 p8) (or (not p18) (not p16) (not p18)) (or (not p5) (not p37) (not p4)) (or (not p0) (not p9) p31) (or (not p30) (not p29) p31) (or p17 p1 p29) (or p19 (not p27) p27) (or p0 (not p0) p3) (or (not p20) (not p13) p12) (or p37 p24 p9) (or p17 p32 (not p3)) (or p18 (not p6) p34) (or p17 p21 (not p15)) (or p6 p19 (not p33)) (or (not p10) (not p0) p28) (or p12 p31 p27) (or (not p35) p24 p34) (or p36 (not p2) (not p13)) (or p4 p28 p35) (or p1 (not p8) (not p14)) (or p10 p7 p3) (or (not p9) (not p38) (not p13)) (or (not p38) (not p4) (not p10)) (or p6 (not p22) p35) (or p2 p25 p0) (or p34 (not p30) p1) (or (not p3) (not p33) (not p34)) (or p2 (not p16) p39) (or (not p33) (not p4) (not p39)) (or p32 (not p13) p36) (or p18 (not p20) p9) (or (not p30) (not p20) (not p7)) (or p24 (not p6) (not p0)) (or p20 (not p14) p24) (or p28 p23 p1) (or p19 p5 (not p28)) (or (not p8) p21 (not p1)) (or (not p31) p1 p3) (or (not p8) (not p15) (not p32)) (or p10 (not p26) (not p6)) (or p28 (not p23) (not p21)) (or p15 (not p22) p23) (or p15 p35 (not p5)) (or p6 p35 p12) (or (not p30) (not p31) p8) (or p13 (not p16) p24) (or p23 p13 (not p5)) (or (not p38) (not p28) (not p0)) (or p8 p12 p18) (or (not p20) (not p21) p30) (or p14 (not p3) (not p10)) (or (not p38) (not p4) p9) (or p7 (not p39) (not p38)) (or p21 (not p8) (not p35)) (or p4 (not p1) (not p20)) (or p28 p15 (not p1)) (or (not p31) (not p33) p14) (or p6 (not p33) (not p15)) (or p13 (not p21) p39) (or (not p15) (not p16) p39) (or (not p22) (not p39) (not p7)) (or p33 (not p20) (not p7)) (or (not p10) (not p39) (not p32)) (or p3 p19 (not p31)) (or p15 p35 (not p19)) (or p1 (not p29) p20) (or p3 p4 (not p14)) (or p16 (not p31) (not p12)) (or p5 (not p0) (not p32)) (or p23 p20 p16) (or (not p11) (not p7) p33) (or (not p26) p9 (not p30)) (or p31 p17 p19) (or p11 p13 (not p12)) (or (not p24) (not p36) p1) (or (not p19) p12 (not p32)) (or (not p31) (not p30) p33) (or p38 (not p24) p37) (or (not p5) (not p17) p29) (or (not p36) (not p29) p18) (or p19 p4 (not p27)) (or p29 (not p38) p14) (or (not p30) (not p17) p30) (or (not p34) (not p11) p13) (or (not p21) (not p0) p19) (or p25 p36 p39) (or p31 (not p23) (not p0)) (or (not p5) (not p11) (not p20)) (or p36 p0 p25) (or (not p26) (not p9) (not p2)) (or (not p32) (not p21) (not p12)) (or p11 (not p2) p38) (or p39 (not p13) p36) (or p34 (not p20) p6) (or p9 p23 p29) (or p26 p12 p17) (or (not p18) (not p1) p14) (or (not p21) (not p32) (not p37)) (or p15 p24 (not p29)) (or (not p11) p10 (not p2)) (or p7 (not p1) p23))
)
(check-sat)
(get-model)
